NAME : att48.tsp
COMMENT : Optimal tour for att48.tsp
TYPE : TOUR
DIMENSION : 48
Total Length: 35131.71595803655
TOUR_SECTION
1
8
9
38
31
44
7
28
6
37
19
27
17
43
30
36
18
46
33
20
47
21
13
25
14
23
11
12
15
40
22
16
41
29
2
42
26
4
35
45
10
24
32
39
48
5
34
3
-1
EOF
